p edge 700 699
e 1 370
e 1 683
e 1 312
e 2 666
e 2 533
e 3 530
e 3 400
e 4 343
e 4 634
e 4 342
e 5 655
e 6 672
e 6 110
e 7 79
e 7 489
e 7 361
e 8 435
e 8 73
e 9 542
e 9 684
e 10 604
e 10 575
e 10 115
e 11 115
e 12 319
e 12 697
e 13 26
e 14 282
e 15 251
e 16 516
e 16 96
e 17 229
e 18 143
e 19 105
e 20 376
e 20 115
e 21 599
e 21 590
e 22 347
e 22 603
e 23 693
e 24 559
e 25 229
e 25 676
e 26 423
e 26 151
e 26 48
e 27 90
e 28 50
e 28 547
e 28 679
e 28 86
e 29 340
e 29 119
e 30 498
e 30 399
e 31 36
e 31 96
e 32 605
e 33 35
e 33 222
e 33 446
e 33 339
e 34 433
e 37 559
e 37 379
e 38 224
e 39 239
e 40 392
e 40 272
e 40 112
e 41 582
e 41 374
e 41 367
e 42 518
e 43 644
e 43 316
e 44 617
e 45 121
e 45 471
e 46 633
e 46 261
e 46 447
e 47 154
e 47 678
e 48 251
e 49 94
e 49 113
e 51 575
e 52 101
e 52 549
e 52 695
e 52 187
e 52 267
e 53 258
e 53 95
e 54 204
e 55 666
e 56 488
e 56 690
e 57 559
e 58 221
e 58 235
e 59 548
e 59 563
e 59 521
e 60 246
e 60 223
e 60 594
e 61 443
e 61 411
e 61 169
e 62 430
e 63 494
e 63 546
e 63 322
e 64 426
e 64 212
e 65 226
e 66 297
e 66 424
e 66 220
e 66 425
e 67 460
e 68 232
e 68 217
e 69 604
e 70 235
e 70 570
e 70 692
e 71 381
e 71 191
e 71 358
e 71 251
e 72 150
e 72 656
e 72 442
e 72 681
e 73 448
e 73 527
e 74 194
e 74 624
e 75 324
e 75 626
e 75 467
e 76 103
e 76 551
e 77 285
e 78 509
e 78 115
e 78 153
e 80 451
e 80 293
e 81 130
e 81 380
e 81 88
e 82 161
e 82 239
e 83 521
e 83 554
e 83 142
e 84 585
e 84 430
e 85 164
e 86 659
e 87 675
e 87 291
e 88 498
e 89 433
e 90 349
e 91 285
e 92 160
e 93 221
e 94 285
e 95 102
e 95 650
e 96 688
e 96 241
e 97 480
e 97 100
e 98 345
e 99 105
e 100 108
e 100 675
e 101 492
e 101 512
e 103 577
e 104 165
e 104 390
e 105 390
e 106 650
e 106 363
e 107 619
e 107 138
e 109 351
e 109 641
e 110 624
e 110 436
e 111 164
e 111 392
e 112 348
e 112 611
e 113 157
e 114 368
e 115 331
e 116 353
e 117 619
e 118 321
e 118 699
e 119 623
e 119 665
e 119 395
e 120 271
e 122 550
e 123 414
e 123 584
e 124 412
e 124 254
e 125 256
e 125 468
e 126 128
e 127 388
e 128 673
e 128 308
e 129 384
e 129 132
e 131 643
e 131 568
e 131 479
e 131 638
e 132 676
e 133 566
e 134 342
e 134 653
e 135 406
e 135 688
e 136 459
e 136 609
e 136 358
e 137 468
e 137 476
e 138 271
e 139 439
e 139 473
e 140 301
e 141 644
e 142 278
e 142 155
e 143 259
e 143 253
e 144 460
e 144 433
e 145 634
e 146 371
e 147 257
e 147 272
e 148 592
e 149 197
e 151 204
e 152 566
e 152 250
e 152 672
e 153 559
e 155 237
e 156 234
e 157 364
e 157 393
e 157 220
e 158 297
e 159 499
e 159 636
e 159 243
e 160 567
e 160 279
e 162 334
e 162 561
e 162 292
e 162 449
e 163 457
e 163 487
e 164 288
e 164 274
e 166 366
e 166 269
e 166 453
e 167 178
e 167 243
e 167 182
e 168 203
e 168 474
e 169 389
e 170 387
e 170 415
e 170 479
e 171 525
e 171 417
e 172 285
e 173 465
e 174 485
e 174 675
e 175 651
e 176 199
e 176 547
e 177 374
e 179 682
e 179 631
e 180 380
e 181 694
e 181 531
e 182 423
e 183 349
e 183 268
e 183 595
e 184 651
e 184 341
e 185 364
e 186 215
e 187 473
e 188 433
e 188 286
e 189 687
e 190 274
e 191 564
e 192 700
e 193 664
e 195 475
e 195 504
e 195 541
e 195 591
e 195 261
e 196 651
e 197 503
e 197 676
e 197 431
e 198 655
e 198 409
e 200 693
e 200 394
e 201 251
e 202 668
e 202 373
e 204 362
e 204 231
e 205 228
e 205 472
e 206 401
e 206 320
e 207 389
e 208 277
e 209 352
e 209 650
e 210 592
e 210 686
e 211 656
e 212 431
e 213 571
e 214 225
e 215 333
e 216 620
e 216 367
e 216 294
e 216 441
e 217 398
e 217 553
e 218 239
e 218 672
e 219 493
e 219 551
e 219 687
e 219 524
e 220 456
e 223 304
e 224 324
e 225 277
e 225 436
e 225 500
e 225 280
e 226 432
e 226 618
e 226 500
e 227 411
e 228 482
e 229 234
e 230 275
e 231 420
e 231 318
e 233 581
e 234 313
e 235 444
e 236 429
e 236 603
e 237 393
e 238 323
e 240 512
e 241 572
e 241 293
e 241 279
e 242 406
e 243 523
e 244 450
e 244 286
e 245 596
e 245 642
e 245 282
e 246 315
e 247 378
e 247 581
e 248 659
e 249 465
e 249 485
e 250 410
e 251 487
e 252 470
e 253 580
e 253 593
e 254 266
e 254 653
e 255 502
e 255 652
e 255 274
e 256 474
e 256 647
e 256 571
e 258 311
e 258 501
e 260 575
e 262 552
e 263 270
e 264 599
e 265 439
e 266 461
e 267 389
e 268 589
e 268 662
e 269 637
e 270 346
e 270 513
e 271 630
e 271 518
e 272 388
e 272 532
e 272 598
e 272 519
e 272 595
e 273 598
e 274 326
e 275 409
e 276 371
e 279 344
e 280 447
e 281 522
e 282 451
e 283 506
e 284 434
e 284 653
e 284 534
e 286 337
e 286 658
e 286 360
e 287 643
e 289 627
e 289 620
e 290 697
e 291 528
e 292 613
e 293 466
e 294 312
e 295 433
e 296 611
e 298 395
e 299 391
e 300 611
e 301 333
e 301 446
e 302 480
e 303 413
e 303 568
e 304 543
e 305 542
e 306 353
e 306 361
e 306 400
e 307 617
e 307 680
e 308 602
e 308 520
e 309 583
e 309 416
e 310 557
e 310 627
e 313 359
e 314 567
e 315 372
e 316 374
e 317 520
e 317 683
e 318 689
e 320 409
e 322 593
e 322 354
e 322 639
e 322 680
e 323 550
e 324 536
e 324 469
e 325 610
e 325 454
e 327 657
e 328 344
e 328 554
e 329 349
e 330 671
e 330 477
e 332 375
e 332 501
e 335 419
e 335 413
e 336 389
e 336 700
e 337 409
e 338 465
e 339 669
e 339 418
e 339 556
e 340 550
e 341 422
e 344 635
e 345 399
e 345 685
e 347 427
e 348 496
e 350 520
e 352 629
e 354 445
e 355 655
e 356 520
e 357 624
e 359 472
e 360 657
e 363 483
e 363 574
e 365 383
e 368 553
e 369 544
e 371 614
e 372 377
e 373 442
e 379 612
e 379 597
e 382 546
e 383 405
e 383 449
e 385 487
e 386 563
e 389 678
e 390 590
e 390 489
e 391 541
e 394 507
e 395 591
e 396 622
e 397 434
e 399 431
e 400 430
e 402 688
e 403 666
e 404 699
e 404 607
e 406 600
e 407 530
e 408 463
e 410 522
e 410 507
e 411 529
e 413 495
e 414 576
e 415 696
e 416 562
e 417 471
e 417 574
e 417 636
e 418 425
e 419 674
e 421 486
e 421 479
e 422 686
e 425 467
e 426 478
e 428 568
e 430 552
e 434 484
e 434 537
e 434 632
e 437 517
e 437 562
e 438 565
e 438 575
e 439 659
e 440 647
e 441 641
e 441 594
e 442 481
e 445 611
e 447 663
e 447 498
e 449 557
e 452 686
e 453 477
e 453 686
e 453 692
e 454 510
e 454 628
e 455 498
e 457 562
e 458 553
e 460 506
e 461 487
e 462 585
e 463 591
e 464 485
e 466 535
e 469 603
e 470 605
e 470 637
e 474 508
e 476 531
e 476 684
e 478 556
e 482 654
e 485 524
e 489 555
e 490 670
e 491 662
e 493 527
e 497 534
e 497 642
e 498 526
e 499 540
e 501 518
e 505 550
e 511 564
e 513 668
e 514 554
e 515 558
e 515 544
e 517 628
e 519 608
e 522 657
e 524 621
e 528 680
e 533 552
e 536 579
e 538 570
e 539 678
e 542 615
e 544 684
e 544 573
e 545 556
e 547 638
e 550 661
e 552 560
e 553 599
e 560 618
e 565 640
e 566 597
e 567 625
e 568 616
e 569 610
e 571 697
e 573 610
e 577 606
e 578 607
e 578 679
e 579 588
e 581 609
e 583 631
e 584 635
e 586 674
e 587 598
e 590 645
e 594 622
e 599 698
e 601 661
e 614 670
e 621 664
e 622 671
e 626 691
e 635 649
e 639 670
e 645 692
e 646 699
e 648 683
e 649 680
e 660 696
e 667 687
e 677 681
e 681 694
e 685 696
e 689 690
